NAME : a280
COMMENT : Tour length 3395
TYPE : TOUR
DIMENSION : 280
TOUR_SECTION
1
2
280
3
279
278
260
259
258
254
253
208
209
252
255
256
257
262
261
263
265
266
138
137
267
268
136
135
134
270
269
264
140
139
148
141
142
143
144
145
146
147
149
150
151
152
156
153
155
154
129
128
127
126
125
30
31
32
33
34
35
36
37
38
39
40
41
42
43
60
61
59
44
45
56
57
58
64
65
66
67
70
71
72
73
74
75
76
77
78
79
80
81
82
83
84
85
86
116
115
114
113
87
88
112
111
110
108
104
105
103
102
101
100
99
98
93
94
95
96
97
92
91
90
89
109
107
106
173
174
163
164
165
166
167
168
169
170
171
172
162
161
175
160
159
158
157
119
120
121
122
123
124
29
28
27
26
22
25
23
24
14
13
12
11
10
8
7
9
275
276
277
4
5
6
274
273
272
271
16
17
18
133
132
19
20
21
130
131
15
249
229
228
227
226
234
233
232
237
236
235
224
225
223
222
219
218
217
220
221
216
213
212
207
210
211
214
215
205
204
203
202
200
199
198
197
194
195
196
201
193
192
191
190
189
188
187
185
184
183
182
181
176
177
178
179
180
186
117
118
62
63
68
69
55
54
53
52
51
50
49
48
47
46
206
230
251
250
247
244
241
240
239
238
231
246
245
243
242
248
1
-1
EOF